
Route #1: 73 21 63 34 48 37 43 68 16 69 15 33 
Route #2: 40 42 77 67 66 70 38 58 32 72 
Route #3: 7 1 13 3 5 78 31 
Route #4: 18 79 28 52 29 60 
Route #5: 49 53 51 62 23 59 27 75 35 47 
Route #6: 4 76 54 45 50 46 41 55 56 
Route #7: 14 71 10 74 39 44 2 8 
Route #8: 36 64 20 61 57 25 65 26 
Route #9: 11 24 6 30 17 12 
Route #10: 19 9 22 
cost 2739.75
total time is 11